<?xml version = "1.0" encoding="UTF-8" standalone="yes"?>
<CPLEXSolution version="1.2">
 <header
   problemName="tunnel_200Dynamic1366498856.ilp"
   solutionName="incumbent"
   solutionIndex="-1"
   objectiveValue="16.6666666666667"
   solutionTypeValue="3"
   solutionTypeString="primal"
   solutionStatusValue="101"
   solutionStatusString="integer optimal solution"
   solutionMethodString="mip"
   primalFeasible="1"
   dualFeasible="1"
   MIPNodes="0"
   MIPIterations="13"
   writeLevel="1"/>
 <quality
   epInt="1e-05"
   epRHS="1e-06"
   maxIntInfeas="0"
   maxPrimalInfeas="1.11022302462516e-16"
   maxX="16.6666666666667"
   maxSlack="83.3333333333333"/>
 <linearConstraints>
  <constraint name="Coverage.1" index="0" slack="1.11022302462516e-16"/>
  <constraint name="ProcLoad.M3" index="1" slack="0"/>
  <constraint name="ProcLoad.M5" index="2" slack="0"/>
  <constraint name="ProcLoad.M12" index="3" slack="0"/>
  <constraint name="ProcLoad.M10" index="4" slack="0"/>
  <constraint name="ProcLoad.M4" index="5" slack="0"/>
  <constraint name="ProcLoad.M11" index="6" slack="0"/>
  <constraint name="ProcLoad.M7" index="7" slack="0"/>
  <constraint name="ProcLoad.M1" index="8" slack="0"/>
  <constraint name="ProcLoad.M8" index="9" slack="0"/>
  <constraint name="ProcLoad.M2" index="10" slack="0"/>
  <constraint name="ProcLoad.M9" index="11" slack="0"/>
  <constraint name="ProcLoad.M6" index="12" slack="0"/>
  <constraint name="ProcLoadBound.M3" index="13" slack="83.3333333333333"/>
  <constraint name="ProcLoadBound.M5" index="14" slack="83.3333333333333"/>
  <constraint name="ProcLoadBound.M12" index="15" slack="83.3333333333333"/>
  <constraint name="ProcLoadBound.M10" index="16" slack="83.3333333333333"/>
  <constraint name="ProcLoadBound.M4" index="17" slack="83.3333333333333"/>
  <constraint name="ProcLoadBound.M11" index="18" slack="83.3333333333333"/>
  <constraint name="ProcLoadBound.M7" index="19" slack="83.3333333333333"/>
  <constraint name="ProcLoadBound.M1" index="20" slack="83.3333333333333"/>
  <constraint name="ProcLoadBound.M8" index="21" slack="83.3333333333333"/>
  <constraint name="ProcLoadBound.M2" index="22" slack="83.3333333333333"/>
  <constraint name="ProcLoadBound.M9" index="23" slack="83.3333333333333"/>
  <constraint name="ProcLoadBound.M6" index="24" slack="83.3333333333333"/>
  <constraint name="MaxProcLoadBound.M3" index="25" slack="0"/>
  <constraint name="MaxProcLoadBound.M5" index="26" slack="0"/>
  <constraint name="MaxProcLoadBound.M12" index="27" slack="0"/>
  <constraint name="MaxProcLoadBound.M10" index="28" slack="0"/>
  <constraint name="MaxProcLoadBound.M4" index="29" slack="0"/>
  <constraint name="MaxProcLoadBound.M11" index="30" slack="0"/>
  <constraint name="MaxProcLoadBound.M7" index="31" slack="0"/>
  <constraint name="MaxProcLoadBound.M1" index="32" slack="0"/>
  <constraint name="MaxProcLoadBound.M8" index="33" slack="0"/>
  <constraint name="MaxProcLoadBound.M2" index="34" slack="0"/>
  <constraint name="MaxProcLoadBound.M9" index="35" slack="0"/>
  <constraint name="MaxProcLoadBound.M6" index="36" slack="0"/>
  <constraint name="SanityCheck.1.0" index="37" slack="1"/>
  <constraint name="SanityCheck.1.1" index="38" slack="0.833333333333333"/>
  <constraint name="SanityCheck.1.2" index="39" slack="0.833333333333333"/>
  <constraint name="SanityCheck.1.3" index="40" slack="0.833333333333333"/>
  <constraint name="SanityCheck.1.4" index="41" slack="0.833333333333333"/>
  <constraint name="SanityCheck.1.5" index="42" slack="1"/>
  <constraint name="SanityCheck.1.6" index="43" slack="1"/>
  <constraint name="SanityCheck.1.7" index="44" slack="1"/>
  <constraint name="SanityCheck.1.8" index="45" slack="1"/>
  <constraint name="SanityCheck.1.9" index="46" slack="0.833333333333333"/>
  <constraint name="SanityCheck.1.10" index="47" slack="1"/>
  <constraint name="SanityCheck.1.11" index="48" slack="1"/>
  <constraint name="SanityCheck.1.12" index="49" slack="1"/>
  <constraint name="SanityCheck.1.13" index="50" slack="1"/>
  <constraint name="SanityCheck.1.14" index="51" slack="0.833333333333333"/>
  <constraint name="SanityCheck.1.15" index="52" slack="1"/>
  <constraint name="SanityCheck.1.16" index="53" slack="1"/>
  <constraint name="SanityCheck.1.17" index="54" slack="1"/>
  <constraint name="SanityCheck.1.18" index="55" slack="1"/>
  <constraint name="SanityCheck.1.19" index="56" slack="1"/>
  <constraint name="SanityCheck.1.20" index="57" slack="1"/>
  <constraint name="SanityCheck.1.21" index="58" slack="1"/>
  <constraint name="SanityCheck.1.22" index="59" slack="1"/>
  <constraint name="SanityCheck.1.23" index="60" slack="1"/>
  <constraint name="SanityCheck.1.24" index="61" slack="1"/>
  <constraint name="SanityCheck.1.25" index="62" slack="1"/>
  <constraint name="SanityCheck.1.26" index="63" slack="1"/>
  <constraint name="SanityCheck.1.27" index="64" slack="1"/>
  <constraint name="SanityCheck.1.28" index="65" slack="1"/>
  <constraint name="SanityCheck.1.29" index="66" slack="1"/>
  <constraint name="SanityCheck.1.30" index="67" slack="1"/>
  <constraint name="SanityCheck.1.31" index="68" slack="1"/>
  <constraint name="SanityCheck.1.32" index="69" slack="1"/>
  <constraint name="SanityCheck.1.33" index="70" slack="1"/>
  <constraint name="SanityCheck.1.34" index="71" slack="1"/>
  <constraint name="SanityCheck.1.35" index="72" slack="1"/>
 </linearConstraints>
 <variables>
  <variable name="LoadFunction" index="0" value="16.6666666666667"/>
  <variable name="f_1_0" index="1" value="0"/>
  <variable name="f_1_1" index="2" value="0.166666666666667"/>
  <variable name="f_1_2" index="3" value="0.166666666666667"/>
  <variable name="f_1_3" index="4" value="0.166666666666667"/>
  <variable name="f_1_4" index="5" value="0.166666666666667"/>
  <variable name="f_1_5" index="6" value="0"/>
  <variable name="f_1_6" index="7" value="0"/>
  <variable name="f_1_7" index="8" value="0"/>
  <variable name="f_1_8" index="9" value="0"/>
  <variable name="f_1_9" index="10" value="0.166666666666667"/>
  <variable name="f_1_10" index="11" value="0"/>
  <variable name="f_1_11" index="12" value="0"/>
  <variable name="f_1_12" index="13" value="0"/>
  <variable name="f_1_13" index="14" value="0"/>
  <variable name="f_1_14" index="15" value="0.166666666666667"/>
  <variable name="f_1_15" index="16" value="0"/>
  <variable name="f_1_16" index="17" value="0"/>
  <variable name="f_1_17" index="18" value="0"/>
  <variable name="f_1_18" index="19" value="0"/>
  <variable name="f_1_19" index="20" value="0"/>
  <variable name="f_1_20" index="21" value="0"/>
  <variable name="f_1_21" index="22" value="0"/>
  <variable name="f_1_22" index="23" value="0"/>
  <variable name="f_1_23" index="24" value="0"/>
  <variable name="f_1_24" index="25" value="0"/>
  <variable name="f_1_25" index="26" value="0"/>
  <variable name="f_1_26" index="27" value="0"/>
  <variable name="f_1_27" index="28" value="0"/>
  <variable name="f_1_28" index="29" value="0"/>
  <variable name="f_1_29" index="30" value="0"/>
  <variable name="f_1_30" index="31" value="0"/>
  <variable name="f_1_31" index="32" value="0"/>
  <variable name="f_1_32" index="33" value="0"/>
  <variable name="f_1_33" index="34" value="0"/>
  <variable name="f_1_34" index="35" value="0"/>
  <variable name="f_1_35" index="36" value="0"/>
  <variable name="Load.M3" index="37" value="16.6666666666667"/>
  <variable name="Load.M5" index="38" value="16.6666666666667"/>
  <variable name="Load.M12" index="39" value="16.6666666666667"/>
  <variable name="Load.M10" index="40" value="16.6666666666667"/>
  <variable name="Load.M4" index="41" value="16.6666666666667"/>
  <variable name="Load.M11" index="42" value="16.6666666666667"/>
  <variable name="Load.M7" index="43" value="16.6666666666667"/>
  <variable name="Load.M1" index="44" value="16.6666666666667"/>
  <variable name="Load.M8" index="45" value="16.6666666666667"/>
  <variable name="Load.M2" index="46" value="16.6666666666667"/>
  <variable name="Load.M9" index="47" value="16.6666666666667"/>
  <variable name="Load.M6" index="48" value="16.6666666666667"/>
  <variable name="a_1_0" index="49" value="1"/>
  <variable name="a_1_1" index="50" value="1"/>
  <variable name="a_1_2" index="51" value="1"/>
  <variable name="a_1_3" index="52" value="1"/>
  <variable name="a_1_4" index="53" value="1"/>
  <variable name="a_1_5" index="54" value="1"/>
  <variable name="a_1_6" index="55" value="1"/>
  <variable name="a_1_7" index="56" value="1"/>
  <variable name="a_1_8" index="57" value="1"/>
  <variable name="a_1_9" index="58" value="1"/>
  <variable name="a_1_10" index="59" value="1"/>
  <variable name="a_1_11" index="60" value="1"/>
  <variable name="a_1_12" index="61" value="1"/>
  <variable name="a_1_13" index="62" value="1"/>
  <variable name="a_1_14" index="63" value="1"/>
  <variable name="a_1_15" index="64" value="1"/>
  <variable name="a_1_16" index="65" value="1"/>
  <variable name="a_1_17" index="66" value="1"/>
  <variable name="a_1_18" index="67" value="1"/>
  <variable name="a_1_19" index="68" value="1"/>
  <variable name="a_1_20" index="69" value="1"/>
  <variable name="a_1_21" index="70" value="1"/>
  <variable name="a_1_22" index="71" value="1"/>
  <variable name="a_1_23" index="72" value="1"/>
  <variable name="a_1_24" index="73" value="1"/>
  <variable name="a_1_25" index="74" value="1"/>
  <variable name="a_1_26" index="75" value="1"/>
  <variable name="a_1_27" index="76" value="1"/>
  <variable name="a_1_28" index="77" value="1"/>
  <variable name="a_1_29" index="78" value="1"/>
  <variable name="a_1_30" index="79" value="1"/>
  <variable name="a_1_31" index="80" value="1"/>
  <variable name="a_1_32" index="81" value="1"/>
  <variable name="a_1_33" index="82" value="1"/>
  <variable name="a_1_34" index="83" value="1"/>
  <variable name="a_1_35" index="84" value="1"/>
 </variables>
</CPLEXSolution>
